nN = 10;
nR = 40;
nH = 2;

a = [[15, 22, 22, 22, 23, 25, 22, 25, 21, 23, 19, 24, 18, 24, 19, 22, 18, 23, 21, 22, 22, 16, 24, 16, 21, 17, 25, 25, 24, 21, 20, 23, 21, 19, 23, 19, 15, 19, 18, 24], [16, 19, 21, 18, 18, 21, 21, 16, 16, 17, 21, 25, 19, 24, 19, 19, 24, 21, 17, 24, 24, 23, 18, 19, 25, 15, 22, 22, 24, 23, 23, 19, 19, 19, 22, 19, 25, 16, 24, 25], [19, 20, 16, 21, 15, 17, 22, 17, 21, 20, 18, 21, 21, 25, 24, 16, 23, 19, 19, 24, 21, 19, 19, 24, 15, 25, 16, 15, 23, 22, 25, 17, 15, 21, 18, 17, 17, 16, 16, 25], [18, 23, 24, 17, 17, 25, 24, 15, 16, 22, 24, 17, 22, 19, 18, 18, 25, 20, 18, 22, 23, 15, 19, 15, 24, 22, 19, 15, 24, 15, 25, 21, 22, 17, 23, 25, 17, 20, 19, 21], [19, 19, 16, 22, 24, 15, 20, 19, 22, 20, 23, 20, 18, 24, 20, 16, 16, 19, 18, 25, 20, 16, 24, 22, 15, 23, 18, 20, 19, 18, 19, 18, 23, 19, 20, 23, 20, 19, 21, 17], [23, 16, 19, 15, 19, 20, 21, 24, 18, 22, 21, 25, 25, 23, 22, 23, 15, 19, 18, 20, 15, 22, 21, 25, 25, 16, 17, 16, 24, 22, 15, 17, 20, 24, 24, 18, 22, 21, 18, 17], [22, 21, 15, 25, 23, 16, 24, 22, 23, 15, 20, 22, 15, 15, 24, 21, 16, 20, 20, 22, 15, 23, 21, 23, 21, 24, 24, 24, 21, 16, 19, 23, 18, 24, 25, 21, 18, 18, 20, 21], [21, 19, 15, 20, 23, 24, 16, 19, 18, 20, 17, 15, 21, 18, 15, 16, 17, 19, 18, 17, 20, 22, 24, 15, 18, 19, 18, 25, 20, 21, 18, 18, 15, 20, 16, 17, 19, 16, 21, 22], [21, 18, 25, 15, 20, 18, 15, 15, 16, 25, 21, 24, 16, 25, 20, 21, 18, 18, 25, 20, 25, 20, 16, 20, 19, 25, 15, 22, 20, 19, 15, 23, 17, 19, 18, 23, 24, 18, 19, 17], [19, 17, 21, 19, 17, 15, 23, 15, 16, 20, 20, 21, 23, 23, 15, 18, 18, 19, 24, 20, 24, 20, 18, 15, 15, 21, 16, 24, 22, 16, 15, 15, 19, 20, 22, 23, 19, 21, 24, 21]];
c = [[[0, 0, 0, 0, 0, 0, 0, 0, 0, 0, 0, 0, 0, 0, 0, 0, 0, 0, 0, 0, 0, 0, 0, 0, 0, 0, 0, 0, 0, 0, 0, 0, 0, 0, 0, 0, 0, 0, 0, 0], [46, 50, 49, 49, 43, 49, 46, 36, 42, 43, 46, 35, 44, 42, 30, 49, 50, 41, 34, 31, 44, 32, 36, 37, 45, 42, 48, 41, 40, 46, 48, 34, 37, 36, 32, 49, 37, 43, 40, 31], [35, 34, 30, 44, 47, 45, 50, 31, 47, 32, 41, 33, 40, 45, 39, 31, 48, 33, 31, 34, 33, 38, 33, 48, 44, 31, 42, 50, 31, 41, 34, 42, 47, 38, 36, 32, 49, 34, 35, 36], [30, 42, 42, 47, 50, 35, 35, 32, 48, 35, 46, 44, 31, 47, 42, 38, 30, 40, 49, 39, 31, 33, 38, 50, 48, 34, 34, 49, 43, 40, 43, 34, 41, 45, 30, 30, 42, 45, 36, 36], [44, 39, 31, 48, 31, 34, 41, 39, 36, 44, 46, 44, 32, 41, 50, 47, 39, 35, 37, 38, 42, 46, 49, 46, 33, 43, 46, 37, 43, 39, 48, 45, 45, 31, 30, 32, 41, 39, 50, 31], [41, 49, 48, 45, 35, 31, 50, 30, 45, 44, 32, 40, 33, 31, 39, 33, 40, 36, 40, 33, 48, 41, 43, 40, 38, 30, 30, 50, 40, 36, 33, 47, 38, 39, 41, 41, 50, 32, 37, 34], [49, 36, 34, 37, 32, 37, 34, 45, 30, 34, 40, 42, 44, 42, 35, 42, 49, 45, 42, 43, 34, 34, 39, 33, 50, 39, 42, 36, 48, 44, 49, 46, 50, 32, 40, 36, 42, 37, 36, 31], [43, 43, 41, 32, 42, 45, 41, 44, 45, 50, 44, 49, 44, 41, 45, 50, 31, 47, 35, 49, 42, 30, 42, 47, 44, 33, 34, 44, 42, 41, 36, 37, 47, 49, 37, 32, 37, 40, 34, 37], [37, 44, 45, 36, 36, 35, 50, 36, 31, 47, 45, 47, 38, 43, 32, 45, 47, 45, 30, 46, 46, 36, 41, 45, 37, 40, 34, 31, 37, 45, 41, 33, 42, 32, 39, 43, 47, 36, 31, 32], [30, 44, 34, 39, 33, 38, 37, 48, 50, 44, 44, 39, 31, 32, 38, 37, 50, 49, 35, 36, 41, 41, 44, 50, 38, 35, 34, 35, 49, 33, 30, 43, 50, 39, 32, 47, 37, 47, 44, 38]], [[0, 0, 0, 0, 0, 0, 0, 0, 0, 0, 0, 0, 0, 0, 0, 0, 0, 0, 0, 0, 0, 0, 0, 0, 0, 0, 0, 0, 0, 0, 0, 0, 0, 0, 0, 0, 0, 0, 0, 0], [0, 0, 0, 0, 0, 0, 0, 0, 0, 0, 0, 0, 0, 0, 0, 0, 0, 0, 0, 0, 0, 0, 0, 0, 0, 0, 0, 0, 0, 0, 0, 0, 0, 0, 0, 0, 0, 0, 0, 0], [43, 40, 43, 41, 44, 35, 33, 46, 32, 35, 38, 42, 47, 44, 36, 44, 40, 43, 30, 34, 43, 35, 31, 41, 38, 47, 31, 36, 30, 46, 36, 39, 31, 32, 41, 37, 36, 38, 45, 46], [50, 50, 41, 33, 41, 42, 32, 31, 30, 50, 41, 41, 37, 43, 31, 48, 43, 46, 41, 32, 40, 49, 41, 50, 42, 30, 43, 35, 31, 34, 39, 34, 42, 50, 33, 30, 43, 34, 43, 30], [34, 34, 35, 46, 41, 50, 30, 50, 35, 37, 37, 33, 32, 46, 32, 30, 43, 44, 37, 31, 35, 44, 30, 41, 47, 39, 49, 48, 32, 37, 50, 35, 50, 41, 42, 41, 47, 41, 49, 46], [40, 34, 36, 44, 32, 30, 43, 46, 40, 38, 35, 42, 36, 31, 48, 41, 39, 43, 41, 30, 43, 44, 30, 31, 33, 38, 40, 44, 38, 48, 41, 30, 37, 41, 38, 37, 39, 50, 38, 49], [32, 33, 34, 49, 31, 42, 31, 46, 40, 32, 46, 35, 33, 47, 36, 37, 40, 44, 48, 45, 50, 47, 47, 31, 37, 36, 49, 44, 41, 48, 49, 50, 31, 34, 32, 45, 36, 45, 49, 35], [40, 42, 50, 30, 34, 40, 40, 47, 39, 37, 45, 44, 42, 32, 31, 49, 37, 38, 46, 37, 33, 41, 50, 49, 32, 38, 30, 46, 37, 35, 30, 50, 40, 36, 41, 34, 36, 49, 50, 35], [50, 50, 39, 50, 36, 36, 33, 49, 37, 44, 31, 43, 38, 42, 40, 45, 35, 35, 30, 50, 36, 33, 33, 40, 44, 45, 45, 47, 39, 35, 49, 40, 39, 32, 42, 31, 38, 46, 37, 30], [39, 47, 47, 49, 47, 32, 42, 33, 37, 50, 42, 39, 41, 39, 45, 49, 38, 39, 30, 34, 49, 47, 30, 36, 48, 40, 33, 42, 34, 45, 45, 32, 40, 35, 35, 40, 31, 49, 39, 44]], [[0, 0, 0, 0, 0, 0, 0, 0, 0, 0, 0, 0, 0, 0, 0, 0, 0, 0, 0, 0, 0, 0, 0, 0, 0, 0, 0, 0, 0, 0, 0, 0, 0, 0, 0, 0, 0, 0, 0, 0], [0, 0, 0, 0, 0, 0, 0, 0, 0, 0, 0, 0, 0, 0, 0, 0, 0, 0, 0, 0, 0, 0, 0, 0, 0, 0, 0, 0, 0, 0, 0, 0, 0, 0, 0, 0, 0, 0, 0, 0], [0, 0, 0, 0, 0, 0, 0, 0, 0, 0, 0, 0, 0, 0, 0, 0, 0, 0, 0, 0, 0, 0, 0, 0, 0, 0, 0, 0, 0, 0, 0, 0, 0, 0, 0, 0, 0, 0, 0, 0], [38, 31, 48, 31, 34, 33, 49, 50, 40, 49, 42, 41, 50, 45, 48, 47, 49, 33, 48, 43, 42, 37, 47, 44, 30, 32, 41, 33, 50, 47, 35, 34, 31, 39, 36, 44, 32, 32, 35, 48], [34, 49, 46, 30, 35, 31, 48, 42, 45, 41, 33, 43, 43, 33, 50, 47, 48, 44, 47, 48, 46, 44, 31, 48, 48, 48, 44, 41, 33, 46, 31, 50, 37, 30, 49, 45, 32, 38, 37, 38], [35, 31, 38, 41, 39, 36, 36, 44, 50, 44, 40, 49, 46, 40, 41, 40, 49, 50, 36, 42, 40, 35, 49, 31, 33, 45, 33, 37, 42, 45, 50, 36, 49, 41, 41, 44, 37, 41, 47, 31], [40, 49, 50, 48, 30, 39, 31, 35, 36, 40, 45, 34, 33, 42, 31, 36, 49, 32, 39, 41, 34, 34, 47, 47, 46, 50, 38, 30, 48, 34, 37, 47, 36, 32, 31, 33, 43, 38, 48, 35], [35, 47, 37, 40, 40, 45, 33, 39, 44, 30, 43, 43, 46, 50, 34, 38, 43, 36, 34, 40, 49, 32, 38, 32, 50, 43, 46, 48, 36, 39, 48, 48, 50, 34, 34, 45, 42, 40, 33, 36], [47, 39, 42, 37, 40, 36, 50, 46, 50, 42, 36, 42, 46, 41, 45, 38, 39, 30, 33, 45, 42, 43, 33, 34, 34, 48, 47, 48, 41, 34, 48, 36, 32, 31, 42, 34, 34, 43, 49, 33], [42, 42, 32, 33, 38, 32, 42, 39, 43, 40, 49, 43, 41, 45, 47, 46, 32, 31, 35, 34, 41, 44, 42, 45, 48, 32, 46, 39, 33, 37, 45, 33, 38, 30, 31, 35, 35, 34, 37, 47]], [[0, 0, 0, 0, 0, 0, 0, 0, 0, 0, 0, 0, 0, 0, 0, 0, 0, 0, 0, 0, 0, 0, 0, 0, 0, 0, 0, 0, 0, 0, 0, 0, 0, 0, 0, 0, 0, 0, 0, 0], [0, 0, 0, 0, 0, 0, 0, 0, 0, 0, 0, 0, 0, 0, 0, 0, 0, 0, 0, 0, 0, 0, 0, 0, 0, 0, 0, 0, 0, 0, 0, 0, 0, 0, 0, 0, 0, 0, 0, 0], [0, 0, 0, 0, 0, 0, 0, 0, 0, 0, 0, 0, 0, 0, 0, 0, 0, 0, 0, 0, 0, 0, 0, 0, 0, 0, 0, 0, 0, 0, 0, 0, 0, 0, 0, 0, 0, 0, 0, 0], [0, 0, 0, 0, 0, 0, 0, 0, 0, 0, 0, 0, 0, 0, 0, 0, 0, 0, 0, 0, 0, 0, 0, 0, 0, 0, 0, 0, 0, 0, 0, 0, 0, 0, 0, 0, 0, 0, 0, 0], [31, 46, 45, 33, 46, 35, 42, 30, 33, 44, 46, 44, 48, 36, 42, 30, 31, 40, 38, 39, 31, 43, 38, 44, 40, 42, 33, 31, 32, 30, 34, 46, 39, 47, 35, 34, 31, 33, 36, 37], [39, 32, 45, 38, 34, 45, 38, 41, 33, 49, 32, 31, 48, 43, 38, 32, 35, 43, 43, 37, 44, 40, 34, 42, 37, 33, 31, 44, 48, 48, 46, 36, 35, 33, 41, 36, 47, 35, 42, 36], [41, 44, 47, 33, 43, 31, 41, 34, 35, 49, 37, 43, 32, 33, 46, 41, 31, 43, 39, 41, 36, 30, 33, 44, 33, 44, 46, 40, 41, 31, 47, 45, 33, 39, 41, 34, 35, 38, 43, 40], [43, 31, 36, 36, 41, 46, 40, 41, 47, 33, 43, 48, 36, 49, 37, 49, 30, 48, 45, 38, 50, 42, 38, 39, 44, 38, 38, 45, 46, 37, 32, 49, 50, 31, 49, 31, 30, 49, 47, 32], [46, 38, 44, 46, 41, 50, 39, 42, 42, 44, 47, 43, 47, 32, 44, 43, 43, 32, 32, 35, 39, 32, 37, 43, 36, 49, 32, 42, 30, 40, 47, 42, 46, 43, 34, 44, 39, 37, 32, 37], [30, 50, 33, 31, 37, 36, 46, 47, 41, 41, 39, 45, 49, 37, 37, 41, 43, 33, 44, 44, 30, 32, 30, 30, 50, 42, 47, 34, 39, 42, 47, 32, 30, 45, 41, 37, 41, 42, 35, 40]], [[0, 0, 0, 0, 0, 0, 0, 0, 0, 0, 0, 0, 0, 0, 0, 0, 0, 0, 0, 0, 0, 0, 0, 0, 0, 0, 0, 0, 0, 0, 0, 0, 0, 0, 0, 0, 0, 0, 0, 0], [0, 0, 0, 0, 0, 0, 0, 0, 0, 0, 0, 0, 0, 0, 0, 0, 0, 0, 0, 0, 0, 0, 0, 0, 0, 0, 0, 0, 0, 0, 0, 0, 0, 0, 0, 0, 0, 0, 0, 0], [0, 0, 0, 0, 0, 0, 0, 0, 0, 0, 0, 0, 0, 0, 0, 0, 0, 0, 0, 0, 0, 0, 0, 0, 0, 0, 0, 0, 0, 0, 0, 0, 0, 0, 0, 0, 0, 0, 0, 0], [0, 0, 0, 0, 0, 0, 0, 0, 0, 0, 0, 0, 0, 0, 0, 0, 0, 0, 0, 0, 0, 0, 0, 0, 0, 0, 0, 0, 0, 0, 0, 0, 0, 0, 0, 0, 0, 0, 0, 0], [0, 0, 0, 0, 0, 0, 0, 0, 0, 0, 0, 0, 0, 0, 0, 0, 0, 0, 0, 0, 0, 0, 0, 0, 0, 0, 0, 0, 0, 0, 0, 0, 0, 0, 0, 0, 0, 0, 0, 0], [43, 49, 49, 32, 33, 45, 39, 42, 48, 31, 39, 36, 50, 35, 46, 50, 47, 42, 47, 41, 32, 36, 40, 31, 37, 45, 32, 42, 48, 38, 47, 35, 41, 38, 43, 31, 33, 49, 30, 35], [40, 49, 31, 30, 34, 40, 42, 36, 40, 38, 31, 33, 48, 48, 42, 46, 50, 44, 39, 46, 30, 40, 30, 37, 48, 49, 50, 38, 47, 49, 43, 43, 45, 44, 43, 41, 39, 35, 36, 34], [49, 46, 44, 34, 31, 42, 31, 40, 44, 48, 37, 32, 43, 44, 49, 39, 41, 37, 38, 44, 48, 40, 43, 33, 39, 41, 37, 37, 50, 39, 35, 36, 40, 41, 48, 34, 30, 45, 42, 38], [35, 31, 34, 33, 38, 33, 39, 36, 46, 42, 45, 34, 35, 34, 48, 36, 30, 36, 40, 50, 33, 36, 46, 30, 38, 31, 31, 40, 47, 35, 46, 32, 36, 39, 49, 36, 44, 36, 50, 43], [34, 44, 31, 33, 35, 47, 43, 31, 42, 45, 45, 30, 35, 41, 37, 33, 30, 45, 47, 40, 39, 36, 33, 34, 36, 30, 32, 30, 50, 33, 35, 47, 41, 38, 50, 50, 40, 48, 30, 50]], [[0, 0, 0, 0, 0, 0, 0, 0, 0, 0, 0, 0, 0, 0, 0, 0, 0, 0, 0, 0, 0, 0, 0, 0, 0, 0, 0, 0, 0, 0, 0, 0, 0, 0, 0, 0, 0, 0, 0, 0], [0, 0, 0, 0, 0, 0, 0, 0, 0, 0, 0, 0, 0, 0, 0, 0, 0, 0, 0, 0, 0, 0, 0, 0, 0, 0, 0, 0, 0, 0, 0, 0, 0, 0, 0, 0, 0, 0, 0, 0], [0, 0, 0, 0, 0, 0, 0, 0, 0, 0, 0, 0, 0, 0, 0, 0, 0, 0, 0, 0, 0, 0, 0, 0, 0, 0, 0, 0, 0, 0, 0, 0, 0, 0, 0, 0, 0, 0, 0, 0], [0, 0, 0, 0, 0, 0, 0, 0, 0, 0, 0, 0, 0, 0, 0, 0, 0, 0, 0, 0, 0, 0, 0, 0, 0, 0, 0, 0, 0, 0, 0, 0, 0, 0, 0, 0, 0, 0, 0, 0], [0, 0, 0, 0, 0, 0, 0, 0, 0, 0, 0, 0, 0, 0, 0, 0, 0, 0, 0, 0, 0, 0, 0, 0, 0, 0, 0, 0, 0, 0, 0, 0, 0, 0, 0, 0, 0, 0, 0, 0], [0, 0, 0, 0, 0, 0, 0, 0, 0, 0, 0, 0, 0, 0, 0, 0, 0, 0, 0, 0, 0, 0, 0, 0, 0, 0, 0, 0, 0, 0, 0, 0, 0, 0, 0, 0, 0, 0, 0, 0], [35, 32, 33, 49, 44, 40, 48, 40, 30, 44, 40, 49, 40, 39, 44, 42, 46, 33, 50, 38, 33, 32, 31, 34, 45, 36, 33, 41, 40, 46, 40, 39, 46, 43, 43, 37, 47, 41, 42, 38], [33, 36, 50, 41, 36, 41, 39, 43, 33, 36, 31, 32, 30, 41, 31, 31, 36, 47, 32, 43, 45, 32, 30, 49, 34, 46, 40, 43, 33, 33, 33, 31, 46, 42, 35, 49, 41, 42, 38, 37], [43, 37, 49, 31, 32, 50, 31, 45, 31, 33, 32, 35, 40, 38, 42, 35, 33, 33, 42, 39, 50, 37, 33, 50, 41, 40, 49, 50, 37, 37, 31, 32, 38, 40, 47, 48, 31, 30, 41, 32], [33, 39, 41, 35, 41, 45, 46, 39, 37, 40, 35, 40, 48, 34, 35, 49, 32, 39, 40, 49, 31, 30, 31, 45, 41, 46, 34, 41, 50, 32, 49, 46, 48, 34, 37, 47, 40, 47, 48, 35]], [[0, 0, 0, 0, 0, 0, 0, 0, 0, 0, 0, 0, 0, 0, 0, 0, 0, 0, 0, 0, 0, 0, 0, 0, 0, 0, 0, 0, 0, 0, 0, 0, 0, 0, 0, 0, 0, 0, 0, 0], [0, 0, 0, 0, 0, 0, 0, 0, 0, 0, 0, 0, 0, 0, 0, 0, 0, 0, 0, 0, 0, 0, 0, 0, 0, 0, 0, 0, 0, 0, 0, 0, 0, 0, 0, 0, 0, 0, 0, 0], [0, 0, 0, 0, 0, 0, 0, 0, 0, 0, 0, 0, 0, 0, 0, 0, 0, 0, 0, 0, 0, 0, 0, 0, 0, 0, 0, 0, 0, 0, 0, 0, 0, 0, 0, 0, 0, 0, 0, 0], [0, 0, 0, 0, 0, 0, 0, 0, 0, 0, 0, 0, 0, 0, 0, 0, 0, 0, 0, 0, 0, 0, 0, 0, 0, 0, 0, 0, 0, 0, 0, 0, 0, 0, 0, 0, 0, 0, 0, 0], [0, 0, 0, 0, 0, 0, 0, 0, 0, 0, 0, 0, 0, 0, 0, 0, 0, 0, 0, 0, 0, 0, 0, 0, 0, 0, 0, 0, 0, 0, 0, 0, 0, 0, 0, 0, 0, 0, 0, 0], [0, 0, 0, 0, 0, 0, 0, 0, 0, 0, 0, 0, 0, 0, 0, 0, 0, 0, 0, 0, 0, 0, 0, 0, 0, 0, 0, 0, 0, 0, 0, 0, 0, 0, 0, 0, 0, 0, 0, 0], [0, 0, 0, 0, 0, 0, 0, 0, 0, 0, 0, 0, 0, 0, 0, 0, 0, 0, 0, 0, 0, 0, 0, 0, 0, 0, 0, 0, 0, 0, 0, 0, 0, 0, 0, 0, 0, 0, 0, 0], [40, 49, 39, 49, 48, 33, 46, 36, 49, 36, 39, 39, 43, 46, 46, 32, 41, 37, 38, 38, 46, 41, 37, 48, 38, 32, 38, 48, 40, 50, 30, 33, 39, 47, 32, 36, 40, 37, 36, 45], [45, 39, 39, 41, 46, 34, 50, 33, 44, 46, 38, 45, 40, 47, 47, 30, 36, 44, 47, 47, 43, 34, 32, 49, 34, 45, 46, 48, 49, 32, 42, 50, 32, 38, 32, 37, 44, 50, 47, 44], [43, 34, 37, 43, 45, 45, 35, 40, 38, 34, 32, 48, 40, 50, 46, 38, 32, 49, 30, 37, 42, 39, 32, 40, 47, 36, 37, 47, 49, 45, 38, 34, 39, 49, 30, 39, 37, 33, 35, 40]], [[0, 0, 0, 0, 0, 0, 0, 0, 0, 0, 0, 0, 0, 0, 0, 0, 0, 0, 0, 0, 0, 0, 0, 0, 0, 0, 0, 0, 0, 0, 0, 0, 0, 0, 0, 0, 0, 0, 0, 0], [0, 0, 0, 0, 0, 0, 0, 0, 0, 0, 0, 0, 0, 0, 0, 0, 0, 0, 0, 0, 0, 0, 0, 0, 0, 0, 0, 0, 0, 0, 0, 0, 0, 0, 0, 0, 0, 0, 0, 0], [0, 0, 0, 0, 0, 0, 0, 0, 0, 0, 0, 0, 0, 0, 0, 0, 0, 0, 0, 0, 0, 0, 0, 0, 0, 0, 0, 0, 0, 0, 0, 0, 0, 0, 0, 0, 0, 0, 0, 0], [0, 0, 0, 0, 0, 0, 0, 0, 0, 0, 0, 0, 0, 0, 0, 0, 0, 0, 0, 0, 0, 0, 0, 0, 0, 0, 0, 0, 0, 0, 0, 0, 0, 0, 0, 0, 0, 0, 0, 0], [0, 0, 0, 0, 0, 0, 0, 0, 0, 0, 0, 0, 0, 0, 0, 0, 0, 0, 0, 0, 0, 0, 0, 0, 0, 0, 0, 0, 0, 0, 0, 0, 0, 0, 0, 0, 0, 0, 0, 0], [0, 0, 0, 0, 0, 0, 0, 0, 0, 0, 0, 0, 0, 0, 0, 0, 0, 0, 0, 0, 0, 0, 0, 0, 0, 0, 0, 0, 0, 0, 0, 0, 0, 0, 0, 0, 0, 0, 0, 0], [0, 0, 0, 0, 0, 0, 0, 0, 0, 0, 0, 0, 0, 0, 0, 0, 0, 0, 0, 0, 0, 0, 0, 0, 0, 0, 0, 0, 0, 0, 0, 0, 0, 0, 0, 0, 0, 0, 0, 0], [0, 0, 0, 0, 0, 0, 0, 0, 0, 0, 0, 0, 0, 0, 0, 0, 0, 0, 0, 0, 0, 0, 0, 0, 0, 0, 0, 0, 0, 0, 0, 0, 0, 0, 0, 0, 0, 0, 0, 0], [45, 41, 34, 50, 35, 41, 39, 48, 33, 33, 46, 36, 32, 34, 36, 46, 35, 33, 40, 37, 38, 38, 34, 37, 38, 33, 45, 42, 49, 50, 36, 47, 35, 41, 49, 42, 36, 35, 43, 32], [31, 31, 38, 50, 31, 39, 36, 45, 38, 43, 48, 45, 43, 44, 37, 44, 30, 47, 47, 31, 39, 41, 40, 39, 32, 33, 49, 31, 37, 48, 50, 43, 40, 43, 49, 50, 41, 31, 40, 39]], [[0, 0, 0, 0, 0, 0, 0, 0, 0, 0, 0, 0, 0, 0, 0, 0, 0, 0, 0, 0, 0, 0, 0, 0, 0, 0, 0, 0, 0, 0, 0, 0, 0, 0, 0, 0, 0, 0, 0, 0], [0, 0, 0, 0, 0, 0, 0, 0, 0, 0, 0, 0, 0, 0, 0, 0, 0, 0, 0, 0, 0, 0, 0, 0, 0, 0, 0, 0, 0, 0, 0, 0, 0, 0, 0, 0, 0, 0, 0, 0], [0, 0, 0, 0, 0, 0, 0, 0, 0, 0, 0, 0, 0, 0, 0, 0, 0, 0, 0, 0, 0, 0, 0, 0, 0, 0, 0, 0, 0, 0, 0, 0, 0, 0, 0, 0, 0, 0, 0, 0], [0, 0, 0, 0, 0, 0, 0, 0, 0, 0, 0, 0, 0, 0, 0, 0, 0, 0, 0, 0, 0, 0, 0, 0, 0, 0, 0, 0, 0, 0, 0, 0, 0, 0, 0, 0, 0, 0, 0, 0], [0, 0, 0, 0, 0, 0, 0, 0, 0, 0, 0, 0, 0, 0, 0, 0, 0, 0, 0, 0, 0, 0, 0, 0, 0, 0, 0, 0, 0, 0, 0, 0, 0, 0, 0, 0, 0, 0, 0, 0], [0, 0, 0, 0, 0, 0, 0, 0, 0, 0, 0, 0, 0, 0, 0, 0, 0, 0, 0, 0, 0, 0, 0, 0, 0, 0, 0, 0, 0, 0, 0, 0, 0, 0, 0, 0, 0, 0, 0, 0], [0, 0, 0, 0, 0, 0, 0, 0, 0, 0, 0, 0, 0, 0, 0, 0, 0, 0, 0, 0, 0, 0, 0, 0, 0, 0, 0, 0, 0, 0, 0, 0, 0, 0, 0, 0, 0, 0, 0, 0], [0, 0, 0, 0, 0, 0, 0, 0, 0, 0, 0, 0, 0, 0, 0, 0, 0, 0, 0, 0, 0, 0, 0, 0, 0, 0, 0, 0, 0, 0, 0, 0, 0, 0, 0, 0, 0, 0, 0, 0], [0, 0, 0, 0, 0, 0, 0, 0, 0, 0, 0, 0, 0, 0, 0, 0, 0, 0, 0, 0, 0, 0, 0, 0, 0, 0, 0, 0, 0, 0, 0, 0, 0, 0, 0, 0, 0, 0, 0, 0], [45, 43, 44, 36, 46, 40, 48, 46, 38, 37, 43, 40, 34, 39, 30, 31, 41, 35, 38, 50, 34, 43, 41, 38, 43, 42, 47, 48, 43, 40, 42, 30, 44, 40, 47, 41, 44, 39, 37, 35]], [[0, 0, 0, 0, 0, 0, 0, 0, 0, 0, 0, 0, 0, 0, 0, 0, 0, 0, 0, 0, 0, 0, 0, 0, 0, 0, 0, 0, 0, 0, 0, 0, 0, 0, 0, 0, 0, 0, 0, 0], [0, 0, 0, 0, 0, 0, 0, 0, 0, 0, 0, 0, 0, 0, 0, 0, 0, 0, 0, 0, 0, 0, 0, 0, 0, 0, 0, 0, 0, 0, 0, 0, 0, 0, 0, 0, 0, 0, 0, 0], [0, 0, 0, 0, 0, 0, 0, 0, 0, 0, 0, 0, 0, 0, 0, 0, 0, 0, 0, 0, 0, 0, 0, 0, 0, 0, 0, 0, 0, 0, 0, 0, 0, 0, 0, 0, 0, 0, 0, 0], [0, 0, 0, 0, 0, 0, 0, 0, 0, 0, 0, 0, 0, 0, 0, 0, 0, 0, 0, 0, 0, 0, 0, 0, 0, 0, 0, 0, 0, 0, 0, 0, 0, 0, 0, 0, 0, 0, 0, 0], [0, 0, 0, 0, 0, 0, 0, 0, 0, 0, 0, 0, 0, 0, 0, 0, 0, 0, 0, 0, 0, 0, 0, 0, 0, 0, 0, 0, 0, 0, 0, 0, 0, 0, 0, 0, 0, 0, 0, 0], [0, 0, 0, 0, 0, 0, 0, 0, 0, 0, 0, 0, 0, 0, 0, 0, 0, 0, 0, 0, 0, 0, 0, 0, 0, 0, 0, 0, 0, 0, 0, 0, 0, 0, 0, 0, 0, 0, 0, 0], [0, 0, 0, 0, 0, 0, 0, 0, 0, 0, 0, 0, 0, 0, 0, 0, 0, 0, 0, 0, 0, 0, 0, 0, 0, 0, 0, 0, 0, 0, 0, 0, 0, 0, 0, 0, 0, 0, 0, 0], [0, 0, 0, 0, 0, 0, 0, 0, 0, 0, 0, 0, 0, 0, 0, 0, 0, 0, 0, 0, 0, 0, 0, 0, 0, 0, 0, 0, 0, 0, 0, 0, 0, 0, 0, 0, 0, 0, 0, 0], [0, 0, 0, 0, 0, 0, 0, 0, 0, 0, 0, 0, 0, 0, 0, 0, 0, 0, 0, 0, 0, 0, 0, 0, 0, 0, 0, 0, 0, 0, 0, 0, 0, 0, 0, 0, 0, 0, 0, 0], [0, 0, 0, 0, 0, 0, 0, 0, 0, 0, 0, 0, 0, 0, 0, 0, 0, 0, 0, 0, 0, 0, 0, 0, 0, 0, 0, 0, 0, 0, 0, 0, 0, 0, 0, 0, 0, 0, 0, 0]]];

q = [[[25, 125], [14, 114], [15, 121], [6, 109], [23, 120], [24, 106], [7, 119], [10, 115], [9, 119], [11, 122], [8, 110], [8, 125], [11, 122], [22, 117], [6, 109], [14, 110], [25, 112], [20, 125], [20, 119], [25, 108], [10, 119], [6, 115], [19, 113], [13, 124], [18, 111], [22, 109], [17, 121], [21, 113], [9, 119], [15, 120], [7, 110], [18, 121], [20, 115], [19, 113], [5, 112], [19, 107], [12, 119], [9, 106], [17, 107], [6, 111]], [[7, 111], [8, 116], [6, 105], [23, 118], [5, 120], [19, 124], [18, 112], [14, 111], [23, 107], [10, 117], [15, 111], [8, 117], [7, 107], [19, 125], [12, 109], [25, 108], [15, 125], [22, 115], [6, 116], [9, 114], [11, 112], [12, 115], [18, 115], [21, 111], [25, 116], [20, 123], [8, 108], [16, 112], [10, 122], [13, 110], [18, 123], [8, 123], [24, 109], [14, 110], [24, 106], [6, 112], [24, 124], [6, 123], [7, 110], [6, 108]], [[13, 113], [5, 107], [24, 115], [5, 115], [9, 115], [9, 123], [22, 115], [12, 106], [12, 108], [20, 123], [25, 120], [14, 109], [9, 125], [17, 107], [16, 110], [18, 108], [19, 123], [10, 112], [15, 116], [5, 115], [16, 115], [8, 110], [10, 116], [12, 106], [22, 108], [21, 107], [11, 113], [14, 122], [24, 111], [20, 119], [11, 108], [21, 121], [18, 107], [15, 116], [9, 113], [19, 105], [18, 122], [8, 123], [10, 107], [14, 119]], [[9, 124], [22, 114], [9, 122], [21, 120], [22, 117], [25, 108], [17, 116], [20, 105], [20, 125], [25, 105], [8, 111], [19, 108], [24, 118], [7, 112], [18, 112], [5, 117], [19, 112], [6, 114], [18, 107], [20, 125], [20, 119], [18, 107], [13, 115], [5, 119], [10, 117], [25, 118], [20, 125], [6, 105], [9, 113], [17, 122], [7, 116], [9, 107], [13, 114], [21, 124], [13, 109], [9, 116], [21, 118], [17, 119], [11, 109], [20, 109]], [[7, 117], [23, 125], [21, 120], [13, 107], [19, 121], [22, 106], [25, 114], [22, 121], [18, 118], [5, 111], [5, 105], [8, 106], [8, 106], [17, 106], [22, 125], [14, 125], [10, 118], [12, 121], [11, 107], [22, 121], [15, 117], [23, 108], [9, 117], [15, 111], [18, 122], [10, 122], [15, 125], [6, 119], [9, 120], [8, 113], [21, 106], [7, 124], [16, 120], [23, 121], [16, 117], [12, 125], [9, 122], [8, 125], [5, 115], [14, 108]], [[12, 106], [25, 124], [18, 106], [22, 120], [13, 114], [25, 108], [22, 107], [23, 117], [23, 120], [11, 109], [21, 114], [8, 108], [20, 124], [10, 116], [25, 112], [18, 111], [12, 114], [18, 107], [5, 112], [19, 116], [9, 119], [5, 107], [20, 114], [16, 115], [23, 113], [14, 113], [13, 115], [16, 119], [14, 115], [25, 105], [7, 121], [14, 119], [23, 118], [17, 109], [14, 120], [9, 111], [13, 123], [17, 110], [15, 121], [11, 112]], [[5, 116], [10, 121], [24, 123], [22, 114], [23, 109], [10, 109], [15, 118], [11, 115], [15, 110], [8, 109], [9, 117], [25, 114], [15, 106], [5, 124], [15, 124], [10, 111], [10, 119], [22, 119], [17, 115], [5, 116], [15, 116], [13, 120], [21, 118], [23, 124], [15, 111], [20, 114], [11, 120], [5, 105], [14, 114], [11, 124], [8, 113], [23, 117], [8, 124], [9, 123], [21, 120], [18, 120], [6, 106], [7, 109], [15, 115], [19, 118]], [[22, 118], [25, 111], [13, 124], [14, 108], [11, 106], [11, 113], [24, 110], [23, 110], [9, 105], [12, 110], [7, 112], [14, 125], [20, 119], [22, 107], [13, 106], [16, 119], [25, 119], [21, 120], [13, 106], [19, 110], [25, 119], [18, 116], [8, 119], [5, 122], [10, 118], [6, 108], [5, 120], [18, 107], [23, 116], [25, 118], [24, 123], [16, 121], [6, 105], [23, 114], [11, 108], [21, 110], [16, 111], [17, 117], [20, 107], [17, 123]], [[7, 123], [24, 119], [6, 114], [7, 122], [22, 121], [19, 115], [9, 121], [19, 105], [20, 123], [23, 108], [8, 118], [16, 122], [25, 115], [22, 112], [11, 115], [12, 119], [10, 113], [12, 122], [9, 116], [24, 121], [7, 118], [21, 112], [16, 109], [7, 124], [23, 119], [7, 118], [6, 120], [9, 117], [5, 111], [13, 119], [9, 113], [16, 105], [10, 125], [19, 113], [12, 111], [15, 114], [13, 117], [5, 116], [15, 121], [18, 120]], [[5, 110], [16, 111], [23, 124], [12, 105], [25, 123], [8, 116], [10, 124], [17, 105], [5, 117], [11, 112], [16, 110], [14, 123], [23, 125], [17, 120], [14, 125], [19, 122], [14, 115], [20, 105], [22, 112], [10, 107], [21, 113], [15, 112], [25, 110], [17, 107], [10, 125], [12, 116], [16, 105], [8, 107], [24, 125], [8, 122], [9, 107], [9, 108], [17, 109], [10, 117], [14, 116], [8, 114], [13, 112], [7, 109], [14, 116], [18, 115]]];
Q = [[46, 369], [44, 367], [46, 365], [49, 368], [45, 373], [51, 366], [44, 372], [51, 365], [44, 374], [46, 367]];
